N = 102;
K = 100;
M = 416;
R0 = 30;
Start = 1;
End = 102;
Edge_Start =  [2 ,2 ,3 ,3 ,3 ,4 ,4 ,4 ,5 ,5 ,5 ,6 ,6 ,6 ,7 ,7 ,7 ,8 ,8 ,8 ,9 ,9 ,9 ,10 ,10 ,10 ,11 ,11 ,12 ,12 ,12 ,13 ,13 ,13 ,13 ,13 ,14 ,14 ,14 ,14 ,14 ,15 ,15 ,15 ,15 ,15 ,16 ,16 ,16 ,16 ,16 ,17 ,17 ,17 ,17 ,17 ,18 ,18 ,18 ,18 ,18 ,19 ,19 ,19 ,19 ,19 ,20 ,20 ,20 ,20 ,20 ,21 ,21 ,21 ,22 ,22 ,22 ,23 ,23 ,23 ,23 ,23 ,24 ,24 ,24 ,24 ,24 ,25 ,25 ,25 ,25 ,25 ,26 ,26 ,26 ,26 ,26 ,27 ,27 ,27 ,27 ,27 ,28 ,28 ,28 ,28 ,28 ,29 ,29 ,29 ,29 ,29 ,30 ,30 ,30 ,30 ,30 ,31 ,31 ,31 ,32 ,32 ,32 ,33 ,33 ,33 ,33 ,33 ,34 ,34 ,34 ,34 ,34 ,35 ,35 ,35 ,35 ,35 ,36 ,36 ,36 ,36 ,36 ,37 ,37 ,37 ,37 ,37 ,38 ,38 ,38 ,38 ,38 ,39 ,39 ,39 ,39 ,39 ,40 ,40 ,40 ,40 ,40 ,41 ,41 ,41 ,42 ,42 ,42 ,43 ,43 ,43 ,43 ,43 ,44 ,44 ,44 ,44 ,44 ,45 ,45 ,45 ,45 ,45 ,46 ,46 ,46 ,46 ,46 ,47 ,47 ,47 ,47 ,47 ,48 ,48 ,48 ,48 ,48 ,49 ,49 ,49 ,49 ,49 ,50 ,50 ,50 ,50 ,50 ,51 ,51 ,51 ,52 ,52 ,52 ,53 ,53 ,53 ,53 ,53 ,54 ,54 ,54 ,54 ,54 ,55 ,55 ,55 ,55 ,55 ,56 ,56 ,56 ,56 ,56 ,57 ,57 ,57 ,57 ,57 ,58 ,58 ,58 ,58 ,58 ,59 ,59 ,59 ,59 ,59 ,60 ,60 ,60 ,60 ,60 ,61 ,61 ,61 ,62 ,62 ,62 ,63 ,63 ,63 ,63 ,63 ,64 ,64 ,64 ,64 ,64 ,65 ,65 ,65 ,65 ,65 ,66 ,66 ,66 ,66 ,66 ,67 ,67 ,67 ,67 ,67 ,68 ,68 ,68 ,68 ,68 ,69 ,69 ,69 ,69 ,69 ,70 ,70 ,70 ,70 ,70 ,71 ,71 ,71 ,72 ,72 ,72 ,73 ,73 ,73 ,73 ,73 ,74 ,74 ,74 ,74 ,74 ,75 ,75 ,75 ,75 ,75 ,76 ,76 ,76 ,76 ,76 ,77 ,77 ,77 ,77 ,77 ,78 ,78 ,78 ,78 ,78 ,79 ,79 ,79 ,79 ,79 ,80 ,80 ,80 ,80 ,80 ,81 ,81 ,81 ,82 ,82 ,82 ,83 ,83 ,83 ,83 ,83 ,84 ,84 ,84 ,84 ,84 ,85 ,85 ,85 ,85 ,85 ,86 ,86 ,86 ,86 ,86 ,87 ,87 ,87 ,87 ,87 ,88 ,88 ,88 ,88 ,88 ,89 ,89 ,89 ,89 ,89 ,90 ,90 ,90 ,90 ,90 ,91 ,91 ,91 ,1 ,1 ,1 ,1 ,1 ,1 ,1 ,1 ,1 ,1 ,92 ,93 ,94 ,95 ,96 ,97 ,98 ,99 ,100 ,101];
Edge_End =  [12 ,13 ,13 ,14 ,12 ,14 ,15 ,13 ,15 ,16 ,14 ,16 ,17 ,15 ,17 ,18 ,16 ,18 ,19 ,17 ,19 ,20 ,18 ,20 ,21 ,19 ,21 ,20 ,13 ,22 ,23 ,14 ,12 ,23 ,24 ,22 ,15 ,13 ,24 ,25 ,23 ,16 ,14 ,25 ,26 ,24 ,17 ,15 ,26 ,27 ,25 ,18 ,16 ,27 ,28 ,26 ,19 ,17 ,28 ,29 ,27 ,20 ,18 ,29 ,30 ,28 ,21 ,19 ,30 ,31 ,29 ,20 ,31 ,30 ,23 ,32 ,33 ,24 ,22 ,33 ,34 ,32 ,25 ,23 ,34 ,35 ,33 ,26 ,24 ,35 ,36 ,34 ,27 ,25 ,36 ,37 ,35 ,28 ,26 ,37 ,38 ,36 ,29 ,27 ,38 ,39 ,37 ,30 ,28 ,39 ,40 ,38 ,31 ,29 ,40 ,41 ,39 ,30 ,41 ,40 ,33 ,42 ,43 ,34 ,32 ,43 ,44 ,42 ,35 ,33 ,44 ,45 ,43 ,36 ,34 ,45 ,46 ,44 ,37 ,35 ,46 ,47 ,45 ,38 ,36 ,47 ,48 ,46 ,39 ,37 ,48 ,49 ,47 ,40 ,38 ,49 ,50 ,48 ,41 ,39 ,50 ,51 ,49 ,40 ,51 ,50 ,43 ,52 ,53 ,44 ,42 ,53 ,54 ,52 ,45 ,43 ,54 ,55 ,53 ,46 ,44 ,55 ,56 ,54 ,47 ,45 ,56 ,57 ,55 ,48 ,46 ,57 ,58 ,56 ,49 ,47 ,58 ,59 ,57 ,50 ,48 ,59 ,60 ,58 ,51 ,49 ,60 ,61 ,59 ,50 ,61 ,60 ,53 ,62 ,63 ,54 ,52 ,63 ,64 ,62 ,55 ,53 ,64 ,65 ,63 ,56 ,54 ,65 ,66 ,64 ,57 ,55 ,66 ,67 ,65 ,58 ,56 ,67 ,68 ,66 ,59 ,57 ,68 ,69 ,67 ,60 ,58 ,69 ,70 ,68 ,61 ,59 ,70 ,71 ,69 ,60 ,71 ,70 ,63 ,72 ,73 ,64 ,62 ,73 ,74 ,72 ,65 ,63 ,74 ,75 ,73 ,66 ,64 ,75 ,76 ,74 ,67 ,65 ,76 ,77 ,75 ,68 ,66 ,77 ,78 ,76 ,69 ,67 ,78 ,79 ,77 ,70 ,68 ,79 ,80 ,78 ,71 ,69 ,80 ,81 ,79 ,70 ,81 ,80 ,73 ,82 ,83 ,74 ,72 ,83 ,84 ,82 ,75 ,73 ,84 ,85 ,83 ,76 ,74 ,85 ,86 ,84 ,77 ,75 ,86 ,87 ,85 ,78 ,76 ,87 ,88 ,86 ,79 ,77 ,88 ,89 ,87 ,80 ,78 ,89 ,90 ,88 ,81 ,79 ,90 ,91 ,89 ,80 ,91 ,90 ,83 ,92 ,93 ,84 ,82 ,93 ,94 ,92 ,85 ,83 ,94 ,95 ,93 ,86 ,84 ,95 ,96 ,94 ,87 ,85 ,96 ,97 ,95 ,88 ,86 ,97 ,98 ,96 ,89 ,87 ,98 ,99 ,97 ,90 ,88 ,99 ,100 ,98 ,91 ,89 ,100 ,101 ,99 ,90 ,101 ,100 ,2 ,3 ,4 ,5 ,6 ,7 ,8 ,9 ,10 ,11 ,102 ,102 ,102 ,102 ,102 ,102 ,102 ,102 ,102 ,102];
L =  [10 ,2 ,5 ,2 ,5 ,10 ,8 ,3 ,1 ,7 ,2 ,4 ,6 ,10 ,6 ,6 ,4 ,1 ,5 ,1 ,4 ,6 ,9 ,1 ,3 ,3 ,2 ,9 ,5 ,10 ,7 ,2 ,6 ,6 ,4 ,1 ,9 ,8 ,1 ,2 ,3 ,7 ,4 ,8 ,6 ,4 ,6 ,7 ,5 ,1 ,5 ,9 ,7 ,5 ,9 ,5 ,9 ,2 ,3 ,5 ,5 ,7 ,5 ,6 ,9 ,7 ,7 ,2 ,1 ,9 ,5 ,8 ,5 ,6 ,8 ,5 ,8 ,2 ,2 ,8 ,9 ,8 ,10 ,3 ,9 ,2 ,7 ,4 ,3 ,6 ,7 ,2 ,9 ,2 ,5 ,7 ,4 ,7 ,2 ,8 ,3 ,8 ,6 ,8 ,4 ,10 ,3 ,5 ,5 ,10 ,1 ,9 ,8 ,3 ,7 ,3 ,7 ,1 ,8 ,8 ,3 ,7 ,10 ,2 ,1 ,2 ,2 ,6 ,6 ,7 ,9 ,7 ,8 ,9 ,8 ,10 ,8 ,1 ,6 ,8 ,8 ,7 ,9 ,4 ,6 ,5 ,5 ,1 ,10 ,10 ,5 ,2 ,5 ,10 ,9 ,7 ,8 ,5 ,4 ,6 ,10 ,5 ,3 ,4 ,1 ,8 ,9 ,10 ,1 ,3 ,2 ,8 ,10 ,2 ,10 ,8 ,10 ,3 ,8 ,8 ,7 ,2 ,1 ,1 ,6 ,7 ,6 ,7 ,7 ,7 ,5 ,6 ,1 ,10 ,3 ,10 ,5 ,6 ,2 ,5 ,5 ,9 ,2 ,2 ,10 ,3 ,9 ,10 ,1 ,5 ,8 ,7 ,4 ,6 ,5 ,6 ,1 ,6 ,5 ,3 ,2 ,2 ,1 ,6 ,1 ,9 ,9 ,7 ,4 ,10 ,2 ,4 ,3 ,2 ,8 ,3 ,1 ,3 ,7 ,10 ,6 ,10 ,8 ,3 ,8 ,1 ,9 ,6 ,8 ,7 ,1 ,3 ,8 ,4 ,10 ,3 ,4 ,5 ,3 ,1 ,7 ,8 ,3 ,10 ,10 ,4 ,8 ,3 ,5 ,7 ,9 ,7 ,10 ,10 ,7 ,5 ,9 ,4 ,7 ,9 ,10 ,7 ,8 ,1 ,5 ,10 ,6 ,4 ,6 ,2 ,5 ,1 ,7 ,4 ,9 ,8 ,4 ,3 ,8 ,5 ,7 ,5 ,1 ,1 ,5 ,9 ,5 ,2 ,1 ,8 ,1 ,1 ,9 ,10 ,5 ,10 ,10 ,6 ,8 ,1 ,3 ,8 ,4 ,6 ,7 ,8 ,2 ,7 ,2 ,4 ,3 ,1 ,7 ,1 ,10 ,4 ,6 ,7 ,7 ,1 ,5 ,10 ,5 ,6 ,8 ,1 ,10 ,7 ,6 ,10 ,5 ,10 ,8 ,8 ,9 ,2 ,7 ,8 ,10 ,8 ,9 ,5 ,8 ,9 ,2 ,6 ,8 ,6 ,5 ,1 ,6 ,6 ,8 ,8 ,5 ,9 ,1 ,6 ,8 ,5 ,4 ,4 ,5 ,9 ,4 ,7 ,2 ,2 ,10 ,6 ,10 ,5 ,8 ,6 ,8 ,6 ,0 ,0 ,0 ,0 ,0 ,0 ,0 ,0 ,0 ,0 ,0 ,0 ,0 ,0 ,0 ,0 ,0 ,0 ,0 ,0];
D =  [3 ,7 ,9 ,5 ,5 ,9 ,5 ,6 ,7 ,2 ,1 ,7 ,4 ,8 ,6 ,4 ,7 ,4 ,10 ,3 ,3 ,2 ,1 ,8 ,1 ,6 ,1 ,3 ,4 ,2 ,2 ,5 ,5 ,8 ,1 ,2 ,10 ,6 ,10 ,6 ,5 ,5 ,8 ,7 ,2 ,6 ,10 ,7 ,10 ,3 ,5 ,2 ,9 ,6 ,2 ,5 ,6 ,10 ,4 ,8 ,10 ,10 ,7 ,8 ,1 ,2 ,4 ,8 ,1 ,5 ,7 ,7 ,10 ,9 ,4 ,8 ,7 ,4 ,4 ,3 ,8 ,7 ,8 ,4 ,5 ,8 ,10 ,1 ,3 ,6 ,7 ,10 ,9 ,7 ,5 ,5 ,8 ,4 ,6 ,6 ,6 ,6 ,8 ,6 ,5 ,10 ,6 ,5 ,5 ,4 ,2 ,7 ,2 ,1 ,10 ,2 ,3 ,5 ,2 ,3 ,1 ,3 ,9 ,10 ,5 ,4 ,6 ,9 ,8 ,4 ,10 ,1 ,10 ,8 ,1 ,8 ,8 ,2 ,9 ,7 ,5 ,9 ,4 ,4 ,10 ,1 ,4 ,10 ,1 ,10 ,1 ,1 ,10 ,4 ,7 ,9 ,9 ,7 ,2 ,6 ,5 ,1 ,6 ,2 ,10 ,2 ,2 ,5 ,3 ,4 ,1 ,2 ,8 ,7 ,5 ,3 ,9 ,9 ,3 ,5 ,3 ,10 ,3 ,1 ,2 ,2 ,3 ,6 ,9 ,7 ,1 ,8 ,10 ,8 ,9 ,4 ,4 ,6 ,10 ,8 ,5 ,8 ,8 ,6 ,5 ,6 ,5 ,5 ,1 ,2 ,3 ,9 ,1 ,6 ,10 ,7 ,8 ,4 ,9 ,8 ,5 ,2 ,9 ,7 ,8 ,6 ,6 ,8 ,8 ,1 ,8 ,7 ,1 ,8 ,5 ,2 ,5 ,2 ,6 ,9 ,9 ,6 ,4 ,8 ,7 ,2 ,3 ,4 ,5 ,2 ,6 ,1 ,1 ,2 ,6 ,5 ,7 ,1 ,6 ,4 ,7 ,1 ,9 ,8 ,2 ,3 ,4 ,2 ,1 ,2 ,4 ,7 ,9 ,1 ,8 ,8 ,6 ,2 ,8 ,6 ,8 ,9 ,10 ,7 ,3 ,6 ,1 ,7 ,1 ,8 ,9 ,5 ,9 ,6 ,3 ,4 ,1 ,7 ,2 ,7 ,7 ,6 ,2 ,10 ,6 ,4 ,4 ,7 ,2 ,2 ,3 ,3 ,4 ,4 ,1 ,4 ,3 ,5 ,7 ,3 ,2 ,4 ,6 ,9 ,2 ,5 ,3 ,8 ,1 ,7 ,2 ,4 ,2 ,2 ,10 ,8 ,6 ,7 ,8 ,7 ,1 ,7 ,2 ,3 ,6 ,9 ,4 ,9 ,6 ,1 ,8 ,6 ,8 ,9 ,3 ,9 ,5 ,3 ,7 ,4 ,5 ,6 ,8 ,1 ,8 ,10 ,9 ,7 ,8 ,7 ,7 ,6 ,10 ,9 ,8 ,3 ,1 ,8 ,8 ,9 ,9 ,7 ,1 ,7 ,3 ,2 ,3 ,4 ,5 ,7 ,7 ,7 ,8 ,2 ,4 ,6 ,0 ,0 ,0 ,0 ,0 ,0 ,0 ,0 ,0 ,0 ,0 ,0 ,0 ,0 ,0 ,0 ,0 ,0 ,0 ,0];
R =  [3 ,5 ,3 ,1 ,2 ,3 ,2 ,5 ,4 ,2 ,4 ,3 ,4 ,3 ,3 ,4 ,1 ,2 ,3 ,2 ,3 ,1 ,3 ,5 ,2 ,2 ,5 ,3 ,1 ,4 ,4 ,1 ,4 ,4 ,4 ,3 ,1 ,3 ,4 ,1 ,1 ,4 ,5 ,4 ,5 ,1 ,3 ,1 ,5 ,1 ,4 ,2 ,2 ,3 ,4 ,1 ,2 ,3 ,1 ,4 ,4 ,3 ,2 ,2 ,2 ,2 ,5 ,4 ,1 ,1 ,3 ,4 ,3 ,3 ,4 ,5 ,2 ,2 ,2 ,2 ,5 ,1 ,5 ,5 ,3 ,5 ,2 ,5 ,2 ,5 ,3 ,1 ,5 ,4 ,5 ,4 ,3 ,3 ,5 ,4 ,5 ,2 ,4 ,1 ,5 ,4 ,1 ,1 ,1 ,2 ,4 ,4 ,3 ,2 ,4 ,3 ,5 ,1 ,4 ,1 ,1 ,4 ,2 ,1 ,1 ,4 ,1 ,2 ,5 ,5 ,3 ,3 ,4 ,1 ,5 ,3 ,1 ,1 ,5 ,1 ,5 ,1 ,3 ,5 ,2 ,3 ,2 ,1 ,1 ,5 ,1 ,4 ,5 ,3 ,1 ,1 ,5 ,2 ,3 ,5 ,4 ,2 ,3 ,3 ,4 ,1 ,4 ,1 ,4 ,4 ,5 ,2 ,4 ,5 ,5 ,4 ,5 ,5 ,2 ,1 ,4 ,5 ,2 ,2 ,3 ,2 ,2 ,5 ,5 ,5 ,5 ,2 ,3 ,1 ,2 ,4 ,2 ,1 ,1 ,2 ,3 ,4 ,5 ,1 ,4 ,5 ,2 ,4 ,2 ,1 ,2 ,5 ,2 ,3 ,2 ,4 ,2 ,3 ,4 ,4 ,2 ,5 ,4 ,4 ,3 ,5 ,3 ,1 ,2 ,3 ,1 ,5 ,2 ,3 ,4 ,2 ,5 ,1 ,5 ,3 ,4 ,1 ,5 ,3 ,5 ,2 ,1 ,2 ,1 ,4 ,2 ,5 ,4 ,5 ,4 ,4 ,3 ,5 ,1 ,5 ,2 ,3 ,3 ,2 ,3 ,3 ,2 ,5 ,4 ,5 ,2 ,2 ,5 ,5 ,4 ,4 ,5 ,5 ,5 ,2 ,2 ,4 ,4 ,4 ,3 ,3 ,4 ,4 ,5 ,5 ,5 ,5 ,4 ,2 ,2 ,4 ,1 ,5 ,4 ,1 ,1 ,2 ,1 ,1 ,5 ,4 ,2 ,4 ,5 ,5 ,5 ,5 ,4 ,2 ,2 ,3 ,3 ,1 ,3 ,1 ,5 ,4 ,2 ,1 ,5 ,1 ,2 ,3 ,2 ,1 ,5 ,1 ,4 ,5 ,3 ,1 ,2 ,3 ,1 ,4 ,5 ,5 ,5 ,3 ,4 ,2 ,2 ,4 ,5 ,1 ,5 ,1 ,3 ,2 ,3 ,3 ,5 ,4 ,1 ,4 ,4 ,5 ,3 ,2 ,5 ,3 ,1 ,3 ,2 ,5 ,3 ,2 ,2 ,5 ,2 ,2 ,1 ,1 ,3 ,1 ,2 ,2 ,2 ,5 ,5 ,4 ,3 ,5 ,3 ,4 ,2 ,5 ,3 ,5 ,3 ,2 ,500 ,500 ,500 ,500 ,500 ,500 ,500 ,500 ,500 ,500 ,500 ,500 ,500 ,500 ,500 ,500 ,500 ,500 ,500 ,500];
